100 1000
15 42
64 30
82 27
87 93
81 8
54 34
65 47
98 64
42 82
99 76
6 70
50 79
90 23
99 5
96 67
57 9
76 97
12 29
47 7
18 61
46 73
73 3
99 44
60 85
40 7
60 51
15 49
5 90
65 59
69 38
19 55
72 39
51 62
33 85
11 54
72 81
69 38
64 42
97 90
95 90
32 26
59 50
34 22
3 71
27 52
99 41
82 77
44 32
66 49
83 2
72 96
28 84
64 20
90 48
15 17
38 62
65 87
91 94
68 84
28 26
17 73
80 52
1 12
29 70
54 42
8 47
11 94
11 13
70 47
40 89
93 90
65 7
51 51
49 39
75 24
35 6
41 74
60 69
72 5
57 47
76 78
6 65
28 67
12 35
59 89
58 69
55 96
30 15
66 20
13 8
24 28
24 25
9 16
17 33
43 22
67 16
90 64
37 64
36 63
36 67
